c generated by ezSAT
p cnf 439 1078
     1                 0
    -2                 0
     1                 0
    -3    -4     6     0
    -6     3           0
    -6     4           0
     5     6     7     0
    -7    -5           0
    -7    -6           0
    -6    -5     8     0
    -8     6           0
    -8     5           0
     7     8    -9     0
     9    -7           0
     9    -8           0
     9                 0
    10    11   -12     0
    12   -10           0
    12   -11           0
     3    12    13     0
   -13    -3           0
   -13   -12           0
   -12    -3    14     0
   -14    12           0
   -14     3           0
    13    14   -15     0
    15   -13           0
    15   -14           0
    15                 0
    11    16   -17     0
    17   -11           0
    17   -16           0
     4    17    18     0
   -18    -4           0
   -18   -17           0
   -17    -4    19     0
   -19    17           0
   -19     4           0
    18    19   -20     0
    20   -18           0
    20   -19           0
    20                 0
   -21   -22    23     0
   -23    21           0
   -23    22           0
    11    23    24     0
   -24   -11           0
   -24   -23           0
   -23   -11    25     0
   -25    23           0
   -25    11           0
    24    25   -26     0
    26   -24           0
    26   -25           0
    26                 0
    16    27   -29     0
    29   -16           0
    29   -27           0
    28    29    30     0
   -30   -28           0
   -30   -29           0
   -29   -28    31     0
   -31    29           0
   -31    28           0
    30    31   -32     0
    32   -30           0
    32   -31           0
    32                 0
    33    34   -36     0
    36   -33           0
    36   -34           0
    35    36    37     0
   -37   -35           0
   -37   -36           0
   -36   -35    38     0
   -38    36           0
   -38    35           0
    37    38   -39     0
    39   -37           0
    39   -38           0
    39                 0
    40    41   -43     0
    43   -40           0
    43   -41           0
    42    43    44     0
   -44   -42           0
   -44   -43           0
   -43   -42    45     0
   -45    43           0
   -45    42           0
    44    45   -46     0
    46   -44           0
    46   -45           0
    46                 0
    21    47   -49     0
    49   -21           0
    49   -47           0
    48    49    50     0
   -50   -48           0
   -50   -49           0
   -49   -48    51     0
   -51    49           0
   -51    48           0
    50    51   -52     0
    52   -50           0
    52   -51           0
    52                 0
    41    -5    53     0
   -53   -41           0
   -53     5           0
     5   -41    54     0
   -54    -5           0
   -54    41           0
    53    54   -55     0
    55   -53           0
    55   -54           0
    55                 0
    21   -56    57     0
   -57   -21           0
   -57    56           0
    56   -21    58     0
   -58   -56           0
   -58    21           0
    57    58   -59     0
    59   -57           0
    59   -58           0
    59                 0
    60   -28    61     0
   -61   -60           0
   -61    28           0
    28   -60    62     0
   -62   -28           0
   -62    60           0
    61    62   -63     0
    63   -61           0
    63   -62           0
    63                 0
    16   -35    64     0
   -64   -16           0
   -64    35           0
    35   -16    65     0
   -65   -35           0
   -65    16           0
    64    65   -66     0
    66   -64           0
    66   -65           0
    66                 0
    47   -42    67     0
   -67   -47           0
   -67    42           0
    42   -47    68     0
   -68   -42           0
   -68    47           0
    67    68   -69     0
    69   -67           0
    69   -68           0
    69                 0
    70   -48    71     0
   -71   -70           0
   -71    48           0
    48   -70    72     0
   -72   -48           0
   -72    70           0
    71    72   -73     0
    73   -71           0
    73   -72           0
    73                 0
   -74   -75    77     0
   -77    74           0
   -77    75           0
    76    77    78     0
   -78   -76           0
   -78   -77           0
   -77   -76    79     0
   -79    77           0
   -79    76           0
    78    79   -80     0
    80   -78           0
    80   -79           0
    80                 0
    10    81   -82     0
    82   -10           0
    82   -81           0
    74    82    83     0
   -83   -74           0
   -83   -82           0
   -82   -74    84     0
   -84    82           0
   -84    74           0
    83    84   -85     0
    85   -83           0
    85   -84           0
    85                 0
    81    86   -87     0
    87   -81           0
    87   -86           0
    75    87    88     0
   -88   -75           0
   -88   -87           0
   -87   -75    89     0
   -89    87           0
   -89    75           0
    88    89   -90     0
    90   -88           0
    90   -89           0
    90                 0
   -91   -92    93     0
   -93    91           0
   -93    92           0
    81    93    94     0
   -94   -81           0
   -94   -93           0
   -93   -81    95     0
   -95    93           0
   -95    81           0
    94    95   -96     0
    96   -94           0
    96   -95           0
    96                 0
    27    86   -98     0
    98   -27           0
    98   -86           0
    97    98    99     0
   -99   -97           0
   -99   -98           0
   -98   -97   100     0
  -100    98           0
  -100    97           0
    99   100  -101     0
   101   -99           0
   101  -100           0
   101                 0
    33   102  -104     0
   104   -33           0
   104  -102           0
   103   104   105     0
  -105  -103           0
  -105  -104           0
  -104  -103   106     0
  -106   104           0
  -106   103           0
   105   106  -107     0
   107  -105           0
   107  -106           0
   107                 0
   108   109  -111     0
   111  -108           0
   111  -109           0
   110   111   112     0
  -112  -110           0
  -112  -111           0
  -111  -110   113     0
  -113   111           0
  -113   110           0
   112   113  -114     0
   114  -112           0
   114  -113           0
   114                 0
    91   115  -117     0
   117   -91           0
   117  -115           0
   116   117   118     0
  -118  -116           0
  -118  -117           0
  -117  -116   119     0
  -119   117           0
  -119   116           0
   118   119  -120     0
   120  -118           0
   120  -119           0
   120                 0
   109   -76   121     0
  -121  -109           0
  -121    76           0
    76  -109   122     0
  -122   -76           0
  -122   109           0
   121   122  -123     0
   123  -121           0
   123  -122           0
   123                 0
    91   -56   124     0
  -124   -91           0
  -124    56           0
    56   -91   125     0
  -125   -56           0
  -125    91           0
   124   125  -126     0
   126  -124           0
   126  -125           0
   126                 0
   127   -97   128     0
  -128  -127           0
  -128    97           0
    97  -127   129     0
  -129   -97           0
  -129   127           0
   128   129  -130     0
   130  -128           0
   130  -129           0
   130                 0
    86  -103   131     0
  -131   -86           0
  -131   103           0
   103   -86   132     0
  -132  -103           0
  -132    86           0
   131   132  -133     0
   133  -131           0
   133  -132           0
   133                 0
   115  -110   134     0
  -134  -115           0
  -134   110           0
   110  -115   135     0
  -135  -110           0
  -135   115           0
   134   135  -136     0
   136  -134           0
   136  -135           0
   136                 0
   137  -116   138     0
  -138  -137           0
  -138   116           0
   116  -137   139     0
  -139  -116           0
  -139   137           0
   138   139  -140     0
   140  -138           0
   140  -139           0
   140                 0
  -141  -142   144     0
  -144   141           0
  -144   142           0
   143   144   145     0
  -145  -143           0
  -145  -144           0
  -144  -143   146     0
  -146   144           0
  -146   143           0
   145   146  -147     0
   147  -145           0
   147  -146           0
   147                 0
    10   148  -149     0
   149   -10           0
   149  -148           0
   141   149   150     0
  -150  -141           0
  -150  -149           0
  -149  -141   151     0
  -151   149           0
  -151   141           0
   150   151  -152     0
   152  -150           0
   152  -151           0
   152                 0
   148   153  -154     0
   154  -148           0
   154  -153           0
   142   154   155     0
  -155  -142           0
  -155  -154           0
  -154  -142   156     0
  -156   154           0
  -156   142           0
   155   156  -157     0
   157  -155           0
   157  -156           0
   157                 0
  -158  -159   160     0
  -160   158           0
  -160   159           0
   148   160   161     0
  -161  -148           0
  -161  -160           0
  -160  -148   162     0
  -162   160           0
  -162   148           0
   161   162  -163     0
   163  -161           0
   163  -162           0
   163                 0
    27   153  -165     0
   165   -27           0
   165  -153           0
   164   165   166     0
  -166  -164           0
  -166  -165           0
  -165  -164   167     0
  -167   165           0
  -167   164           0
   166   167  -168     0
   168  -166           0
   168  -167           0
   168                 0
    33   169  -171     0
   171   -33           0
   171  -169           0
   170   171   172     0
  -172  -170           0
  -172  -171           0
  -171  -170   173     0
  -173   171           0
  -173   170           0
   172   173  -174     0
   174  -172           0
   174  -173           0
   174                 0
   175   176  -178     0
   178  -175           0
   178  -176           0
   177   178   179     0
  -179  -177           0
  -179  -178           0
  -178  -177   180     0
  -180   178           0
  -180   177           0
   179   180  -181     0
   181  -179           0
   181  -180           0
   181                 0
   158   182  -184     0
   184  -158           0
   184  -182           0
   183   184   185     0
  -185  -183           0
  -185  -184           0
  -184  -183   186     0
  -186   184           0
  -186   183           0
   185   186  -187     0
   187  -185           0
   187  -186           0
   187                 0
   176  -143   188     0
  -188  -176           0
  -188   143           0
   143  -176   189     0
  -189  -143           0
  -189   176           0
   188   189  -190     0
   190  -188           0
   190  -189           0
   190                 0
   158   -56   191     0
  -191  -158           0
  -191    56           0
    56  -158   192     0
  -192   -56           0
  -192   158           0
   191   192  -193     0
   193  -191           0
   193  -192           0
   193                 0
   194  -164   195     0
  -195  -194           0
  -195   164           0
   164  -194   196     0
  -196  -164           0
  -196   194           0
   195   196  -197     0
   197  -195           0
   197  -196           0
   197                 0
   153  -170   198     0
  -198  -153           0
  -198   170           0
   170  -153   199     0
  -199  -170           0
  -199   153           0
   198   199  -200     0
   200  -198           0
   200  -199           0
   200                 0
   182  -177   201     0
  -201  -182           0
  -201   177           0
   177  -182   202     0
  -202  -177           0
  -202   182           0
   201   202  -203     0
   203  -201           0
   203  -202           0
   203                 0
   204  -183   205     0
  -205  -204           0
  -205   183           0
   183  -204   206     0
  -206  -183           0
  -206   204           0
   205   206  -207     0
   207  -205           0
   207  -206           0
   207                 0
     1                 0
   208    47   209     0
  -209  -208           0
  -209   -47           0
   -47  -208   210     0
  -210    47           0
  -210   208           0
   209   210  -211     0
   211  -209           0
   211  -210           0
   211                 0
   212    70   213     0
  -213  -212           0
  -213   -70           0
   -70  -212   214     0
  -214    70           0
  -214   212           0
   213   214  -215     0
   215  -213           0
   215  -214           0
   215                 0
  -216  -217   219     0
  -219   216           0
  -219   217           0
   218   219   220     0
  -220  -218           0
  -220  -219           0
  -219  -218   221     0
  -221   219           0
  -221   218           0
   220   221  -222     0
   222  -220           0
   222  -221           0
   222                 0
   223   224  -225     0
   225  -223           0
   225  -224           0
   216   225   226     0
  -226  -216           0
  -226  -225           0
  -225  -216   227     0
  -227   225           0
  -227   216           0
   226   227  -228     0
   228  -226           0
   228  -227           0
   228                 0
   224   229  -230     0
   230  -224           0
   230  -229           0
   217   230   231     0
  -231  -217           0
  -231  -230           0
  -230  -217   232     0
  -232   230           0
  -232   217           0
   231   232  -233     0
   233  -231           0
   233  -232           0
   233                 0
  -208  -234   235     0
  -235   208           0
  -235   234           0
   224   235   236     0
  -236  -224           0
  -236  -235           0
  -235  -224   237     0
  -237   235           0
  -237   224           0
   236   237  -238     0
   238  -236           0
   238  -237           0
   238                 0
   229   239  -241     0
   241  -229           0
   241  -239           0
   240   241   242     0
  -242  -240           0
  -242  -241           0
  -241  -240   243     0
  -243   241           0
  -243   240           0
   242   243  -244     0
   244  -242           0
   244  -243           0
   244                 0
   245   246  -248     0
   248  -245           0
   248  -246           0
   247   248   249     0
  -249  -247           0
  -249  -248           0
  -248  -247   250     0
  -250   248           0
  -250   247           0
   249   250  -251     0
   251  -249           0
   251  -250           0
   251                 0
   212   252  -254     0
   254  -212           0
   254  -252           0
   253   254   255     0
  -255  -253           0
  -255  -254           0
  -254  -253   256     0
  -256   254           0
  -256   253           0
   255   256  -257     0
   257  -255           0
   257  -256           0
   257                 0
   234   258  -260     0
   260  -234           0
   260  -258           0
   259   260   261     0
  -261  -259           0
  -261  -260           0
  -260  -259   262     0
  -262   260           0
  -262   259           0
   261   262  -263     0
   263  -261           0
   263  -262           0
   263                 0
   252  -218   264     0
  -264  -252           0
  -264   218           0
   218  -252   265     0
  -265  -218           0
  -265   252           0
   264   265  -266     0
   266  -264           0
   266  -265           0
   266                 0
   234  -267   268     0
  -268  -234           0
  -268   267           0
   267  -234   269     0
  -269  -267           0
  -269   234           0
   268   269  -270     0
   270  -268           0
   270  -269           0
   270                 0
   271  -240   272     0
  -272  -271           0
  -272   240           0
   240  -271   273     0
  -273  -240           0
  -273   271           0
   272   273  -274     0
   274  -272           0
   274  -273           0
   274                 0
   229  -247   275     0
  -275  -229           0
  -275   247           0
   247  -229   276     0
  -276  -247           0
  -276   229           0
   275   276  -277     0
   277  -275           0
   277  -276           0
   277                 0
   258  -253   278     0
  -278  -258           0
  -278   253           0
   253  -258   279     0
  -279  -253           0
  -279   258           0
   278   279  -280     0
   280  -278           0
   280  -279           0
   280                 0
   281  -259   282     0
  -282  -281           0
  -282   259           0
   259  -281   283     0
  -283  -259           0
  -283   281           0
   282   283  -284     0
   284  -282           0
   284  -283           0
   284                 0
   285   115   286     0
  -286  -285           0
  -286  -115           0
  -115  -285   287     0
  -287   115           0
  -287   285           0
   286   287  -288     0
   288  -286           0
   288  -287           0
   288                 0
   289   137   290     0
  -290  -289           0
  -290  -137           0
  -137  -289   291     0
  -291   137           0
  -291   289           0
   290   291  -292     0
   292  -290           0
   292  -291           0
   292                 0
  -293  -294   296     0
  -296   293           0
  -296   294           0
   295   296   297     0
  -297  -295           0
  -297  -296           0
  -296  -295   298     0
  -298   296           0
  -298   295           0
   297   298  -299     0
   299  -297           0
   299  -298           0
   299                 0
   223   300  -301     0
   301  -223           0
   301  -300           0
   293   301   302     0
  -302  -293           0
  -302  -301           0
  -301  -293   303     0
  -303   301           0
  -303   293           0
   302   303  -304     0
   304  -302           0
   304  -303           0
   304                 0
   300   305  -306     0
   306  -300           0
   306  -305           0
   294   306   307     0
  -307  -294           0
  -307  -306           0
  -306  -294   308     0
  -308   306           0
  -308   294           0
   307   308  -309     0
   309  -307           0
   309  -308           0
   309                 0
  -285  -310   311     0
  -311   285           0
  -311   310           0
   300   311   312     0
  -312  -300           0
  -312  -311           0
  -311  -300   313     0
  -313   311           0
  -313   300           0
   312   313  -314     0
   314  -312           0
   314  -313           0
   314                 0
   239   305  -316     0
   316  -239           0
   316  -305           0
   315   316   317     0
  -317  -315           0
  -317  -316           0
  -316  -315   318     0
  -318   316           0
  -318   315           0
   317   318  -319     0
   319  -317           0
   319  -318           0
   319                 0
   245   320  -322     0
   322  -245           0
   322  -320           0
   321   322   323     0
  -323  -321           0
  -323  -322           0
  -322  -321   324     0
  -324   322           0
  -324   321           0
   323   324  -325     0
   325  -323           0
   325  -324           0
   325                 0
   289   326  -328     0
   328  -289           0
   328  -326           0
   327   328   329     0
  -329  -327           0
  -329  -328           0
  -328  -327   330     0
  -330   328           0
  -330   327           0
   329   330  -331     0
   331  -329           0
   331  -330           0
   331                 0
   310   332  -334     0
   334  -310           0
   334  -332           0
   333   334   335     0
  -335  -333           0
  -335  -334           0
  -334  -333   336     0
  -336   334           0
  -336   333           0
   335   336  -337     0
   337  -335           0
   337  -336           0
   337                 0
   326  -295   338     0
  -338  -326           0
  -338   295           0
   295  -326   339     0
  -339  -295           0
  -339   326           0
   338   339  -340     0
   340  -338           0
   340  -339           0
   340                 0
   310  -267   341     0
  -341  -310           0
  -341   267           0
   267  -310   342     0
  -342  -267           0
  -342   310           0
   341   342  -343     0
   343  -341           0
   343  -342           0
   343                 0
   344  -315   345     0
  -345  -344           0
  -345   315           0
   315  -344   346     0
  -346  -315           0
  -346   344           0
   345   346  -347     0
   347  -345           0
   347  -346           0
   347                 0
   305  -321   348     0
  -348  -305           0
  -348   321           0
   321  -305   349     0
  -349  -321           0
  -349   305           0
   348   349  -350     0
   350  -348           0
   350  -349           0
   350                 0
   332  -327   351     0
  -351  -332           0
  -351   327           0
   327  -332   352     0
  -352  -327           0
  -352   332           0
   351   352  -353     0
   353  -351           0
   353  -352           0
   353                 0
   354  -333   355     0
  -355  -354           0
  -355   333           0
   333  -354   356     0
  -356  -333           0
  -356   354           0
   355   356  -357     0
   357  -355           0
   357  -356           0
   357                 0
   358   182   359     0
  -359  -358           0
  -359  -182           0
  -182  -358   360     0
  -360   182           0
  -360   358           0
   359   360  -361     0
   361  -359           0
   361  -360           0
   361                 0
   362   204   363     0
  -363  -362           0
  -363  -204           0
  -204  -362   364     0
  -364   204           0
  -364   362           0
   363   364  -365     0
   365  -363           0
   365  -364           0
   365                 0
  -366  -367   369     0
  -369   366           0
  -369   367           0
   368   369   370     0
  -370  -368           0
  -370  -369           0
  -369  -368   371     0
  -371   369           0
  -371   368           0
   370   371  -372     0
   372  -370           0
   372  -371           0
   372                 0
   223   373  -374     0
   374  -223           0
   374  -373           0
   366   374   375     0
  -375  -366           0
  -375  -374           0
  -374  -366   376     0
  -376   374           0
  -376   366           0
   375   376  -377     0
   377  -375           0
   377  -376           0
   377                 0
   373   378  -379     0
   379  -373           0
   379  -378           0
   367   379   380     0
  -380  -367           0
  -380  -379           0
  -379  -367   381     0
  -381   379           0
  -381   367           0
   380   381  -382     0
   382  -380           0
   382  -381           0
   382                 0
  -358  -383   384     0
  -384   358           0
  -384   383           0
   373   384   385     0
  -385  -373           0
  -385  -384           0
  -384  -373   386     0
  -386   384           0
  -386   373           0
   385   386  -387     0
   387  -385           0
   387  -386           0
   387                 0
   239   378  -389     0
   389  -239           0
   389  -378           0
   388   389   390     0
  -390  -388           0
  -390  -389           0
  -389  -388   391     0
  -391   389           0
  -391   388           0
   390   391  -392     0
   392  -390           0
   392  -391           0
   392                 0
   245   393  -395     0
   395  -245           0
   395  -393           0
   394   395   396     0
  -396  -394           0
  -396  -395           0
  -395  -394   397     0
  -397   395           0
  -397   394           0
   396   397  -398     0
   398  -396           0
   398  -397           0
   398                 0
   362   399  -401     0
   401  -362           0
   401  -399           0
   400   401   402     0
  -402  -400           0
  -402  -401           0
  -401  -400   403     0
  -403   401           0
  -403   400           0
   402   403  -404     0
   404  -402           0
   404  -403           0
   404                 0
   383   405  -407     0
   407  -383           0
   407  -405           0
   406   407   408     0
  -408  -406           0
  -408  -407           0
  -407  -406   409     0
  -409   407           0
  -409   406           0
   408   409  -410     0
   410  -408           0
   410  -409           0
   410                 0
   399  -368   411     0
  -411  -399           0
  -411   368           0
   368  -399   412     0
  -412  -368           0
  -412   399           0
   411   412  -413     0
   413  -411           0
   413  -412           0
   413                 0
   383  -267   414     0
  -414  -383           0
  -414   267           0
   267  -383   415     0
  -415  -267           0
  -415   383           0
   414   415  -416     0
   416  -414           0
   416  -415           0
   416                 0
   417  -388   418     0
  -418  -417           0
  -418   388           0
   388  -417   419     0
  -419  -388           0
  -419   417           0
   418   419  -420     0
   420  -418           0
   420  -419           0
   420                 0
   378  -394   421     0
  -421  -378           0
  -421   394           0
   394  -378   422     0
  -422  -394           0
  -422   378           0
   421   422  -423     0
   423  -421           0
   423  -422           0
   423                 0
   405  -400   424     0
  -424  -405           0
  -424   400           0
   400  -405   425     0
  -425  -400           0
  -425   405           0
   424   425  -426     0
   426  -424           0
   426  -425           0
   426                 0
   427  -406   428     0
  -428  -427           0
  -428   406           0
   406  -427   429     0
  -429  -406           0
  -429   427           0
   428   429  -430     0
   430  -428           0
   430  -429           0
   430                 0
   246    60   431     0
  -431  -246           0
  -431   -60           0
   -60  -246   432     0
  -432    60           0
  -432   246           0
   431   432  -433     0
   433  -431           0
   433  -432           0
   433                 0
   320   127   434     0
  -434  -320           0
  -434  -127           0
  -127  -320   435     0
  -435   127           0
  -435   320           0
   434   435  -436     0
   436  -434           0
   436  -435           0
   436                 0
   393   194   437     0
  -437  -393           0
  -437  -194           0
  -194  -393   438     0
  -438   194           0
  -438   393           0
   437   438  -439     0
   439  -437           0
   439  -438           0
   439                 0
